\ Model opt_adjust
\ LP format - for model browsing. Use MPS format to capture full model detail.
Minimize
  e[0,0] + e[0,1] + e[1,0] + e[1,1] + e[2,0] + e[2,1] + e[3,0] + e[3,1]
   + e[4,0] + e[4,1] + e[5,0] + e[5,1] + f[0,0] + f[0,1] + f[1,0] + f[1,1]
   + f[2,0] + f[2,1] + f[3,0] + f[3,1] + f[4,0] + f[4,1] + f[5,0] + f[5,1]
Subject To
 qc0: y[0] + 14 y[1] - 7 y[2] + 15 y[3] - 5 y[4] + 4 y[5] + [ e[0,0] * y[0]
   + e[1,0] * y[1] + e[2,0] * y[2] + e[3,0] * y[3] + e[4,0] * y[4]
   + e[5,0] * y[5] - f[0,0] * y[0] - f[1,0] * y[1] - f[2,0] * y[2]
   - f[3,0] * y[3] - f[4,0] * y[4] - f[5,0] * y[5] ] = 9
 qc1: 16 y[0] + 11 y[1] + 7 y[2] - 5 y[3] - 14 y[4] + 2 y[5] + [
   e[0,1] * y[0] + e[1,1] * y[1] + e[2,1] * y[2] + e[3,1] * y[3]
   + e[4,1] * y[4] + e[5,1] * y[5] - f[0,1] * y[0] - f[1,1] * y[1]
   - f[2,1] * y[2] - f[3,1] * y[3] - f[4,1] * y[4] - f[5,1] * y[5] ] = 1
 qc2: - 19.03085106382979 y[0] + [ 0.9095744680851063 e[0,0] * y[0]
   - 0.1212765957446808 e[0,1] * y[0] - 0.9095744680851063 f[0,0] * y[0]
   + 0.1212765957446808 f[0,1] * y[0] ] = 0
 qc3: - 0.6 y[1] + [ 0.9095744680851063 e[1,0] * y[1]
   - 0.1212765957446808 e[1,1] * y[1] - 0.9095744680851063 f[1,0] * y[1]
   + 0.1212765957446808 f[1,1] * y[1] ] = 0
 qc4: - 26.21595744680851 y[2] + [ 0.9095744680851063 e[2,0] * y[2]
   - 0.1212765957446808 e[2,1] * y[2] - 0.9095744680851063 f[2,0] * y[2]
   + 0.1212765957446808 f[2,1] * y[2] ] = 0
 qc5: - 0.75 y[3] + [ 0.9095744680851063 e[3,0] * y[3]
   - 0.1212765957446808 e[3,1] * y[3] - 0.9095744680851063 f[3,0] * y[3]
   + 0.1212765957446808 f[3,1] * y[3] ] = 0
 qc6: - 27.85 y[4] + [ 0.9095744680851063 e[4,0] * y[4]
   - 0.1212765957446808 e[4,1] * y[4] - 0.9095744680851063 f[4,0] * y[4]
   + 0.1212765957446808 f[4,1] * y[4] ] = 0
 qc7: - 2.604255319148936 y[5] + [ 0.9095744680851063 e[5,0] * y[5]
   - 0.1212765957446808 e[5,1] * y[5] - 0.9095744680851063 f[5,0] * y[5]
   + 0.1212765957446808 f[5,1] * y[5] ] = 0
Bounds
End
